36 16
39 10
46 10
30 15
32 22
27 23
21 10
13 13
5 6
10 17
5 25
20 26
17 33
7 38
12 42
8 52
5 64
17 63
16 57
25 55
21 47
25 32
31 32
32 39
30 40
30 48
31 62
27 68
37 69
43 67
52 64
62 63
63 69
57 58
58 48
49 49
42 57
37 52
38 46
42 41
45 35
56 37
62 42
52 41
52 33
61 33
58 27
59 15
51 21
48 28
40 30
36 16
